NAME : portcgen-26-17
COMMENT : portcgen N=26, seed=17
TYPE : TSP
DIMENSION : 26
EDGE_WEIGHT_TYPE : EUC_2D
NODE_COORD_SECTION
1 423753 -210716
2 -117616 -114149
3 330945 203496
4 235887 -88508
5 285552 157009
6 -61753 417974
7 444784 184280
8 -253779 358538
9 139589 176886
10 870 -242468
11 -137189 187247
12 231120 227839
13 -105815 84296
14 -58118 -203067
15 -300606 -259421
16 76419 -338320
17 -1914 83897
18 -322287 -71181
19 -146905 9493
20 -443926 111558
21 318631 217312
22 -395776 -43525
23 -110763 -65178
24 428975 96090
25 -389750 -112846
26 126150 -255249
